\* P *\
Maximize
OBJ: 1000 paint_exterior + 2000 paint_interior + 3000 paint_theme
Subject To
_C1: paint_exterior + 2 paint_interior + 3 paint_theme <= 10
_C2: paint_interior + 2 paint_theme <= 5
End
